* ENCODING=ISO-8859-1
NAME          CPLEX
ROWS
 N  obj1    
 G  c1      
 G  c2      
 G  c3      
 G  c4      
 G  c5      
 G  c6      
 G  c7      
 G  c8      
 G  c9      
 G  c10     
 G  c11     
 G  c12     
 G  c13     
 G  c14     
 G  c15     
 G  c16     
 G  c17     
 G  c18     
 G  c19     
 G  c20     
 G  c21     
 G  c22     
 G  c23     
 G  c24     
 G  c25     
 G  c26     
 G  c27     
 G  c28     
 G  c29     
 G  c30     
 G  c31     
 G  c32     
 G  c33     
 G  c34     
 G  c35     
COLUMNS
    MARK0000  'MARKER'                 'INTORG'
    x1        obj1                            1
    x1        c5                            724
    x1        c24                           640
    x1        c31                           174
    x1        c35                           572
    x2        obj1                            1
    x2        c2                            169
    x2        c5                            468
    x2        c8                            209
    x2        c34                           926
    x3        obj1                            1
    x3        c10                           979
    x3        c15                           361
    x3        c16                           587
    x3        c27                           717
    x3        c32                           122
    x4        obj1                            1
    x4        c7                            659
    x4        c10                           759
    x4        c17                           261
    x5        obj1                            1
    x5        c11                           595
    x5        c14                           137
    x5        c26                           981
    x6        obj1                            1
    x6        c14                           354
    x6        c18                           854
    x6        c23                           950
    x6        c26                           942
    x6        c28                           252
    x7        obj1                            1
    x7        c7                            682
    x7        c19                           924
    x7        c32                           744
    x8        obj1                            1
    x8        c5                            770
    x8        c8                            322
    x8        c17                           740
    x9        obj1                            1
    x9        c29                           225
    x10       obj1                            1
    x10       c17                           402
    x10       c28                           325
    x11       obj1                            1
    x11       c7                            653
    x11       c22                           409
    x11       c25                           165
    x11       c26                           360
    x11       c27                           189
    x11       c29                           327
    x12       obj1                            1
    x12       c4                            119
    x12       c9                            603
    x12       c15                           784
    x12       c22                           850
    x13       obj1                            1
    x13       c5                            241
    x13       c22                           770
    x13       c24                           962
    x13       c32                           442
    x13       c33                           834
    x13       c35                           212
    x14       obj1                            1
    x14       c1                            168
    x14       c9                            479
    x14       c16                           515
    x15       obj1                            1
    x15       c15                           431
    x15       c19                           917
    x16       obj1                            1
    x16       c3                            595
    x16       c7                            315
    x16       c19                           282
    x16       c25                           476
    x17       obj1                            1
    x17       c7                            894
    x17       c13                           225
    x17       c16                           357
    x17       c18                           990
    x17       c35                           587
    x18       obj1                            1
    x18       c8                            319
    x18       c11                           964
    x18       c19                           440
    x18       c27                           531
    x19       obj1                            1
    x19       c4                            278
    x19       c30                           539
    x19       c34                           437
    x20       obj1                            1
    x20       c2                            460
    x20       c6                            390
    x20       c14                           258
    x20       c16                           571
    x20       c19                           212
    x20       c21                           228
    x20       c32                           677
    x20       c35                           459
    x21       obj1                            1
    x21       c11                           762
    x21       c23                           746
    x21       c28                           344
    x21       c33                           867
    x21       c35                           601
    x22       obj1                            1
    x22       c3                            703
    x22       c22                           671
    x22       c26                           535
    x22       c29                           106
    x22       c31                           485
    x23       obj1                            1
    x23       c22                           763
    x23       c26                           109
    x23       c33                           407
    x24       obj1                            1
    x24       c1                            225
    x24       c7                            313
    x24       c8                            745
    x24       c11                           572
    x24       c17                           271
    x24       c29                           329
    x25       obj1                            1
    x25       c11                           313
    x25       c16                           972
    x25       c26                           787
    x26       obj1                            1
    x26       c1                            308
    x26       c3                            722
    x26       c10                           806
    x26       c24                           526
    x26       c28                           222
    x26       c30                           142
    x26       c34                           841
    x27       obj1                            1
    x27       c14                           866
    x27       c25                           596
    x28       obj1                            1
    x28       c10                           344
    x28       c16                           544
    x28       c21                           428
    x29       obj1                            1
    x29       c6                            815
    x29       c7                            913
    x29       c16                           529
    x29       c18                           724
    x29       c24                           919
    x29       c31                           985
    x29       c35                           513
    x30       obj1                            1
    x31       obj1                            1
    x31       c1                            932
    x31       c2                            917
    x31       c6                            404
    x31       c9                            296
    x32       obj1                            1
    x32       c27                           991
    x33       obj1                            1
    x33       c2                            921
    x33       c6                            583
    x33       c13                           997
    x33       c17                           957
    x33       c19                           274
    x34       obj1                            1
    x35       obj1                            1
    x35       c8                            291
    x35       c15                           408
    x35       c16                           345
    x35       c20                           527
    x35       c23                           780
    x35       c24                           767
    x36       obj1                            1
    x36       c7                            361
    x36       c25                           360
    x36       c30                           236
    x36       c33                           632
    x36       c35                           715
    x37       obj1                            1
    x37       c25                           835
    x37       c30                           309
    x38       obj1                            1
    x38       c11                           930
    x38       c19                           431
    x38       c21                           111
    x39       obj1                            1
    x39       c20                           985
    x39       c28                           378
    x39       c30                           880
    x39       c32                           883
    x40       obj1                            1
    x40       c2                            589
    x40       c12                           331
    x40       c25                           413
    x41       obj1                            1
    x41       c11                           883
    x41       c27                           664
    x41       c28                           706
    x41       c30                           850
    x42       obj1                            1
    x42       c5                            961
    x42       c7                            911
    x42       c27                           769
    x43       obj1                            1
    x43       c2                            479
    x43       c5                            207
    x43       c12                           973
    x43       c14                           714
    x43       c19                           975
    x43       c23                           369
    x43       c33                           826
    x44       obj1                            1
    x44       c17                           467
    x44       c19                           166
    x44       c32                           654
    x45       obj1                            1
    x45       c1                            988
    x45       c9                            433
    x46       obj1                            1
    x46       c4                            928
    x46       c6                            658
    x46       c22                           889
    x46       c26                           183
    x46       c30                           956
    x46       c31                           852
    x47       obj1                            1
    x47       c2                            537
    x47       c8                            698
    x47       c11                           447
    x47       c32                           201
    x47       c33                           370
    x48       obj1                            1
    x48       c22                           928
    x49       obj1                            1
    x49       c6                            327
    x49       c13                           865
    x49       c22                           886
    x49       c28                           124
    x50       obj1                            1
    x50       c3                            243
    x50       c6                            456
    x50       c12                           939
    x51       obj1                            1
    x51       c20                           851
    x51       c26                           623
    x51       c29                           124
    x52       obj1                            1
    x52       c20                           529
    x52       c32                           826
    x53       obj1                            1
    x53       c6                            351
    x53       c13                           128
    x53       c28                           413
    x54       obj1                            1
    x54       c1                            739
    x54       c3                            418
    x54       c5                            890
    x54       c13                           770
    x54       c14                           214
    x54       c23                           966
    x55       obj1                            1
    x55       c4                            729
    x55       c14                           741
    x55       c20                           165
    x56       obj1                            1
    x56       c34                           664
    x57       obj1                            1
    x57       c22                           957
    x57       c31                           611
    x57       c33                           489
    x58       obj1                            1
    x58       c17                           600
    x58       c27                           836
    x58       c33                           411
    x59       obj1                            1
    x59       c6                            446
    x59       c11                           715
    x59       c16                           574
    x59       c22                           264
    x59       c23                           379
    x59       c25                           734
    x59       c26                           334
    x59       c35                           438
    x60       obj1                            1
    x60       c11                           753
    x60       c12                           186
    x60       c15                           560
    x60       c18                           197
    x61       obj1                            1
    x61       c2                            806
    x61       c25                           984
    x61       c28                           330
    x62       obj1                            1
    x62       c30                           922
    x63       obj1                            1
    x63       c8                            899
    x63       c10                           847
    x63       c15                           980
    x63       c31                           571
    x64       obj1                            1
    x64       c8                            978
    x64       c32                           806
    x65       obj1                            1
    x65       c8                            218
    x65       c33                           204
    x66       obj1                            1
    x66       c10                           183
    x66       c15                           596
    x66       c21                           272
    x66       c27                           523
    x67       obj1                            1
    x67       c26                           347
    x67       c33                           977
    x68       obj1                            1
    x68       c5                            832
    x68       c35                           540
    x69       obj1                            1
    x69       c20                           245
    x69       c21                           438
    x69       c25                           277
    x69       c31                           508
    x69       c34                           182
    x69       c35                           668
    x70       obj1                            1
    x70       c2                            778
    x70       c31                           364
    MARK0001  'MARKER'                 'INTEND'
RHS
    rhs       c1                           1680
    rhs       c2                           2828
    rhs       c3                           1341
    rhs       c4                           1027
    rhs       c5                           2547
    rhs       c6                           2215
    rhs       c7                           2851
    rhs       c8                           2340
    rhs       c9                            906
    rhs       c10                          1959
    rhs       c11                          3467
    rhs       c12                          1215
    rhs       c13                          1493
    rhs       c14                          1642
    rhs       c15                          2060
    rhs       c16                          2497
    rhs       c17                          1849
    rhs       c18                          1383
    rhs       c19                          2311
    rhs       c20                          1651
    rhs       c21                           739
    rhs       c22                          3694
    rhs       c23                          2095
    rhs       c24                          1907
    rhs       c25                          2420
    rhs       c26                          2601
    rhs       c27                          2610
    rhs       c28                          1547
    rhs       c29                           556
    rhs       c30                          2417
    rhs       c31                          2275
    rhs       c32                          2678
    rhs       c33                          3009
    rhs       c34                          1525
    rhs       c35                          2653
BOUNDS
 LI bnd       x1        0
 LI bnd       x2        0
 LI bnd       x3        0
 LI bnd       x4        0
 LI bnd       x5        0
 LI bnd       x6        0
 LI bnd       x7        0
 LI bnd       x8        0
 LI bnd       x9        0
 LI bnd       x10       0
 LI bnd       x11       0
 LI bnd       x12       0
 LI bnd       x13       0
 LI bnd       x14       0
 LI bnd       x15       0
 LI bnd       x16       0
 LI bnd       x17       0
 LI bnd       x18       0
 LI bnd       x19       0
 LI bnd       x20       0
 LI bnd       x21       0
 LI bnd       x22       0
 LI bnd       x23       0
 LI bnd       x24       0
 LI bnd       x25       0
 LI bnd       x26       0
 LI bnd       x27       0
 LI bnd       x28       0
 LI bnd       x29       0
 LI bnd       x30       0
 LI bnd       x31       0
 LI bnd       x32       0
 LI bnd       x33       0
 LI bnd       x34       0
 LI bnd       x35       0
 LI bnd       x36       0
 LI bnd       x37       0
 LI bnd       x38       0
 LI bnd       x39       0
 LI bnd       x40       0
 LI bnd       x41       0
 LI bnd       x42       0
 LI bnd       x43       0
 LI bnd       x44       0
 LI bnd       x45       0
 LI bnd       x46       0
 LI bnd       x47       0
 LI bnd       x48       0
 LI bnd       x49       0
 LI bnd       x50       0
 LI bnd       x51       0
 LI bnd       x52       0
 LI bnd       x53       0
 LI bnd       x54       0
 LI bnd       x55       0
 LI bnd       x56       0
 LI bnd       x57       0
 LI bnd       x58       0
 LI bnd       x59       0
 LI bnd       x60       0
 LI bnd       x61       0
 LI bnd       x62       0
 LI bnd       x63       0
 LI bnd       x64       0
 LI bnd       x65       0
 LI bnd       x66       0
 LI bnd       x67       0
 LI bnd       x68       0
 LI bnd       x69       0
 LI bnd       x70       0
ENDATA
